
(set-logic ALL) 

(declare-datatype MyList ((Nil) (Cons (head Real) (tail MyList)) )) 
(declare-fun l0 () MyList) 
(declare-fun l1 () MyList) 
(declare-fun l2 () MyList) 
(declare-fun l3 () MyList) 
(declare-fun i0 () Real) 
(declare-fun i1 () Real) 
(assert (and (= l0 Nil) (= l3 l3) (= l2 Nil) (is-Nil Nil)) )
(assert (and (= l0 l0) (= l1 l1)) )
(assert (not (= l0 Nil)) )
(assert (and (= l2 l1) (is-Cons Nil) (= l0 l3)) )
(assert (= l0 l3) )
(assert (not (= l1 Nil)) )
(assert (and (is-Nil l3) (= l0 l2) (is-Nil Nil)) )
(assert (or (= l1 l0) (= l3 Nil) (is-Cons l2)) )
(check-sat)
